70 70
0 2 1
2 65 1
65 58 1
58 38 1
38 26 1
26 44 1
44 57 1
57 43 1
43 27 1
27 41 1
41 59 1
59 66 1
66 53 1
53 49 1
49 25 1
25 40 1
40 60 1
60 32 1
32 12 1
12 4 1
4 8 1
8 35 1
35 22 1
22 51 1
51 54 1
54 68 1
68 3 1
3 67 1
67 55 1
55 50 1
50 23 1
23 47 1
47 62 1
62 64 1
64 63 1
63 46 1
46 21 1
21 36 1
36 10 1
10 7 1
7 18 1
18 29 1
29 19 1
19 6 1
6 11 1
11 37 1
37 20 1
20 48 1
48 52 1
52 34 1
34 9 1
9 5 1
5 15 1
15 33 1
33 61 1
61 39 1
39 24 1
24 42 1
42 14 1
14 31 1
31 17 1
17 28 1
28 16 1
16 30 1
30 13 1
13 45 1
45 56 1
56 69 1
69 1 1
1 0 1
